id: 1156
name: neos-506428
group: miplib2010
method: 1

Gurobi 7.0.2 (linux64, Matlab) logging started Fri Apr 20 03:03:50 2018


Gurobi 7.0.2 (linux64) logging started Fri Apr 20 03:03:50 2018

Optimize a model with 129925 rows, 42981 columns and 343466 nonzeros
Coefficient statistics:
  Matrix range     [5e-08, 3e+01]
  Objective range  [1e+05, 1e+05]
  Bounds range     [1e+00, 1e+00]
  RHS range        [1e+00, 3e+01]
Presolve time: 0.07s
Presolved: 129925 rows, 42981 columns, 343466 nonzeros

Iteration    Objective       Primal Inf.    Dual Inf.      Time
       0    0.0000000e+00   9.500000e+01   0.000000e+00      0s
    2003    1.4594500e+05   0.000000e+00   0.000000e+00      0s

Solved in 2003 iterations and 0.18 seconds
Optimal objective  1.459450000e+05
status: OPTIMAL
